c Source: inf-euroroad (2-hop neighborhood of node 107)
c n=26, m=40, circuit_rank=15
c Augmented with 8 edges for Eulerian condition
p sp 26
e 23 24
e 4 5
e 1 14
e 4 12
e 3 16
e 11 16
e 3 23
e 14 15
e 3 19
e 13 22
e 1 2
e 7 26
e 2 17
e 7 13
e 2 10
e 6 7
e 1 15
e 3 15
e 18 19
e 2 3
e 2 21
e 3 4
e 7 12
e 6 13
e 7 8
e 2 9
e 16 20
e 22 25
e 3 7
e 3 25
e 6 22
e 15 16
e 1 4
e 5 6
e 8 9
e 10 11
e 13 17
e 18 20
e 21 22
e 24 26
